(set-logic UFLIA)
(declare-fun a () Int)
(declare-fun b () Int)
(declare-fun x () Int)
(declare-fun y () Int)
(assert (= (+ a 1) x))
(assert (= (+ (* 2 b) 3) y))
(assert (not (= (= (+ a 1) y) (= x (+ (* 2 b) 3)))))
(check-sat)
(exit)
